&CONTROL
    calculation = "relax"
    outdir = './',
    pseudo_dir = '/home/samim/quantum_base/upf_files',
    prefix = 'graphene' ,
    etot_conv_thr = 1.0D-5
    forc_conv_thr = 1.0D-4
/

&SYSTEM
    a           = 2.463
    c           = 20
    degauss     = 0.01
    ecutrho     = 400
    ecutwfc     = 40
    ibrav       = 4
    nspin       = 2
    nat         = 2
    ntyp        = 1
    occupations = "smearing"
    smearing    = "mv"
    starting_magnetization(1) =  0.0
/

&ELECTRONS
    conv_thr         = 1.0D-07
    electron_maxstep = 100
    mixing_beta      = 0.7
/

&IONS
ion_dynamics = "bfgs"
/


K_POINTS {automatic}
12  12  1  0 0 0

ATOMIC_SPECIES
C      12.01070  C.pbe-n-rrkjus_psl.0.1.UPF

ATOMIC_POSITIONS {angstrom}
C                1.2334917809        0.7145164034        9.7637700000
C                0.0020482191        1.4254935966        9.7637700000


