&PROJWFC
prefix  = "graphene",
outdir  = "./",
filproj = 'pdos.dat',
/


